unknown
(model
; cardinality of BoundSet is 2
(declare-sort BoundSet 0)
; rep: @uc_BoundSet_0
; rep: @uc_BoundSet_1
; cardinality of UnboundSet is 1
(declare-sort UnboundSet 0)
(declare-fun groundTerm_3 () UnboundSet)
(define-fun IsWearingBlackCap ((BOUND_VARIABLE_410 BoundSet)) Bool true)
(define-fun IsSuspendedInAir ((BOUND_VARIABLE_410 BoundSet)) Bool true)
(define-fun IsOnSwing ((BOUND_VARIABLE_417 BoundSet) (BOUND_VARIABLE_418 BoundSet)) Bool true)
(define-fun IsInBlackHat ((BOUND_VARIABLE_410 BoundSet)) Bool false)
(define-fun IsSwingingWith ((BOUND_VARIABLE_417 BoundSet) (BOUND_VARIABLE_418 BoundSet)) Bool false)
)
sat
(model
; cardinality of BoundSet is 1
(declare-sort BoundSet 0)
; rep: @uc_BoundSet_0
; cardinality of UnboundSet is 1
(declare-sort UnboundSet 0)
(declare-fun groundTerm_5 () UnboundSet)
(define-fun IsWearingBlackCap ((BOUND_VARIABLE_457 BoundSet)) Bool true)
(define-fun IsSuspendedInAir ((BOUND_VARIABLE_457 BoundSet)) Bool true)
(define-fun IsOnSwing ((BOUND_VARIABLE_464 BoundSet) (BOUND_VARIABLE_465 BoundSet)) Bool true)
(define-fun IsInBlackHat ((BOUND_VARIABLE_457 BoundSet)) Bool false)
(define-fun IsSwingingWith ((BOUND_VARIABLE_464 BoundSet) (BOUND_VARIABLE_465 BoundSet)) Bool true)
)
